problems/csplib-prob065/opd-models/compact/O2/minion/model_1-small_bibd_08_28_14-solution000001.solution
language Essence 1.3

letting lambda be 7
letting opd be
        {{2, 3, 6, 7, 8, 11, 14, 15, 18, 21, 23, 24, 27, 28}, {3, 5, 6, 7, 9, 10, 11, 16, 17, 18, 25, 26, 27, 28},
         {4, 5, 6, 7, 8, 9, 10, 11, 19, 20, 21, 22, 23, 24}, {4, 5, 6, 7, 12, 13, 14, 15, 16, 17, 18, 22, 23, 24},
         {4, 5, 6, 7, 12, 13, 14, 19, 20, 21, 25, 26, 27, 28}, {8, 9, 10, 11, 12, 13, 14, 15, 16, 17, 18, 19, 20, 21},
         {8, 9, 10, 11, 12, 13, 14, 22, 23, 24, 25, 26, 27, 28},
         {15, 16, 17, 18, 19, 20, 21, 22, 23, 24, 25, 26, 27, 28}}
$ Visualisation for opd
$  2  3  6  7  8 11 14 15 18 21 23 24 27 28
$  3  5  6  7  9 10 11 16 17 18 25 26 27 28
$  4  5  6  7  8  9 10 11 19 20 21 22 23 24
$  4  5  6  7 12 13 14 15 16 17 18 22 23 24
$  4  5  6  7 12 13 14 19 20 21 25 26 27 28
$  8  9 10 11 12 13 14 15 16 17 18 19 20 21
$  8  9 10 11 12 13 14 22 23 24 25 26 27 28
$ 15 16 17 18 19 20 21 22 23 24 25 26 27 28

